10J3M/DAT/10J3MUNA-6.dat
10 3
6.1259 37.5267
10.0879 101.7657
32.3595 1047.1372
12.3225 151.844
19.8344 393.4034
11.5543 133.5018
21.512 462.7661
6.8791 47.322
23.1632 536.5338
27.5691 760.0553
3671.856