10J3M/SOL/10J3MUNA-6.sol
solution status: optimal solution found
objective value:                     57.1359666666667
x#1#1                                               1 	(obj:0)
x#2#1                                               1 	(obj:0)
x#3#2                               0.197891397168271 	(obj:0)
x#3#3                               0.802108602831729 	(obj:0)
x#4#1                                               1 	(obj:0)
x#5#1                               0.512557307842267 	(obj:0)
x#5#3                               0.487442692157733 	(obj:0)
x#6#1                                               1 	(obj:0)
x#7#3                                               1 	(obj:0)
x#8#1                                               1 	(obj:0)
x#9#2                                               1 	(obj:0)
x#10#2                                              1 	(obj:0)
z                                    57.1359666666667 	(obj:1)
